benchmarks_vrp/CMT5/min_c/CMT5_2.vrp
NAME: CMT5_2
TYPE: CVRP
COMMENT: 1291.29 - Cluster Nr.2
DIMENSION: 13
CAPACITY: 200
EDGE_WEIGHT_TYPE: EUC_2D
NODE_COORD_TYPE: TWOD_COORDS
NODE_COORD_SECTION: 
4 40 25
2 33 34
8 25 32
12 31 32
5 40 30
1 35 40
7 26 35
6 36 26
10 41 37
3 35 35
13 37 31
11 36 26
9 32 39
DEPOT_SECTION: 
3
-1
DEMAND_SECTION: 
3 0
11 26
6 18
12 29
5 21
2 19
4 9
7 15
8 25
9 5
1 16
13 14
10 16
EOF
