benchmarks_vrp/CMT5/min_c/CMT5_2.tour
NAME: CMT5_2 solution
TYPE: TOUR
TOUR_SECTION:
3 1 9 7 8 12 2 -1
3 10 5 4 11 6 13 -1
-1
EOF